30 4
33 50 14 44 59 26 16 53 10 61 94 52 98 59 10 90 42 43 42 20 69 62 44 49 80 93 20 50 54 10
38 10 58 79 88 78 58 59 33 79 49 98 83 57 67 46 24 60 21 27 95 68 42 36 59 26 77 60 83 90
17 100 24 48 48 30 86 12 74 99 59 76 50 58 66 35 66 54 16 76 23 82 99 63 87 12 79 51 38 79
10 19 13 27 10 52 15 100 48 31 17 67 43 99 40 25 76 57 48 15 67 32 98 72 26 73 71 84 69 37
